c WARNING: for repeatability, setting FPU to use double precision
c ============================[ Problem Statistics ]=============================
c |                                                                             |
c |  Number of variables:           250                                         |
c |  Number of clauses:            1065                                         |
c |  Parse time:                   0.00 s                                       |
c |  Eliminated clauses:           0.00 Mb                                      |
c |  Simplification time:          0.00 s                                       |
c |                                                                             |
c ============================[ Search Statistics ]==============================
c | Conflicts |          ORIGINAL         |          LEARNT          | Progress |
c |           |    Vars  Clauses Literals |    Limit  Clauses Lit/Cl |          |
c ===============================================================================
c |      5000 |     244     1060     3214 |      775     4368     14 |  0.002 % | 8 625 | 0 0.8 (0.8) 1.4 (1.4) 5 (5-10) 15000 0.02
c |     10000 |     244     1060     3214 |     1602     8710     14 |  0.002 % | 9 1111 | 0 0.8 (0.8) 1.4 (1.4) 5 (5-10) 15000 0.02
c |     15000 |     244     1060     3214 |     2399    13129     13 |  0.002 % | 9 1666 | 0 0.8 (0.8) 1.4 (1.4) 5 (5-10) 15000 0.02
c |     20000 |     244     1060     3214 |     3120    17005     14 |  0.002 % | 9 2222 | 0 0.8 (0.8) 1.4 (1.4) 5 (5-10) 15000 0.02
c |     25000 |     244     1060     3214 |     4057    21345     13 |  0.002 % | 9 2777 | 0 0.8 (0.8) 1.4 (1.4) 5 (5-10) 15000 0.02
c |     30000 |     244     1060     3214 |     4836    25797     13 |  0.002 % | 10 3000 | 0 0.8 (0.8) 1.4 (1.4) 5 (5-10) 15000 0.02
c |     35000 |     244     1060     3214 |     5782    15672     12 |  0.003 % | 10 3500 | 0 0.8 (0.8) 1.4 (1.4) 5 (5-10) 15000 0.02
c |     40000 |     244     1060     3214 |     6619    20051     12 |  0.002 % | 12 3333 | 0 0.8 (0.8) 1.4 (1.4) 5 (5-10) 15000 0.02
c |     45000 |     244     1060     3214 |     7262    24537     12 |  0.002 % | 25 1800 | 0 0.8 (0.8) 1.4 (1.4) 5 (5-10) 15000 0.02
c ===============================================================================
c restarts              : 25
c conflicts             : 47073          (44173 /sec)
c decisions             : 55246          (0.00 % random) (51842 /sec)
c propagations          : 1937159        (1817799 /sec)
c conflict literals     : 621057         (25.27 % deleted)
c Memory used           : 9.00 MB
c CPU time              : 1.06566 s
c 
s UNKNOWN
